Q:[
30000	50000	100000
]

q:
[
0
8000
8000
8000
8000
8100
8000
8400
8400
8400
8400
8400
8400
8500
9000
10000
]

L:
[30000	25000	20000
30000	25000	20000
30000	25000	20000
30000	25000	20000
30000	25000	20000
30000	25000	20000
30000	25000	20000
30000	50000	100000
30000	50000	100000
30000	50000	100000
30000	50000	100000
30000	50000	100000
30000	50000	100000
30000	50000	100000
30000	50000	100000

]

coord:
[
0	0
25	52
81	44
78	9
22	12
39	57
62	3
11	50
91	79
48	22
60	29
71	94
43	25
74	77
80	92
51	19]



c:[1 1.3 2]

r:[2	3	5
10	10	10
5	7	10
10	10	10
10	10	10
5	7	10
2	3	5
2	3	5
1	2	5
2	3	5
3	5	7
10	10	10
5	7	10
10	10	10
10	10	10
]

